(declare-fun temp3517_2 () (_ BitVec 64))
(declare-fun temp3517_1 () (_ BitVec 64))
(declare-fun temp3517_3 () (_ BitVec 64))
(declare-fun var463945 () (_ BitVec 64))
(declare-fun temp3517_4 () (_ BitVec 64))
(declare-fun var788278 () (_ BitVec 64))
(declare-fun var987356 () (_ BitVec 64))
(declare-fun temp3517_5 () (_ BitVec 64))
(declare-fun temp3517_6 () (_ BitVec 64))
(declare-fun var464053 () (_ BitVec 64))
(declare-fun k!0 () Bool)
(declare-fun ARGNAME_n_NAMEEND () (_ BitVec 64))
(declare-fun temp3517_7 () (_ BitVec 64))
(declare-fun var464087 () (_ BitVec 64))
(declare-fun temp3517_8 () (_ BitVec 64))
(declare-fun var464088 () (_ BitVec 64))
(declare-fun temp3517_9 () (_ BitVec 64))
(declare-fun ARGNAME_input_NAMEEND_DIM () (_ BitVec 64))
(declare-fun var1443819 () (_ BitVec 64))
(declare-fun temp3517_11 () (_ BitVec 64))
(declare-fun temp3517_10 () (_ BitVec 64))
(declare-fun var1510263 () (_ BitVec 64))
(declare-fun temp3517_12 () (_ BitVec 64))
(declare-fun var1576712 () (_ BitVec 64))
(declare-fun var1642257 () (_ BitVec 64))
(declare-fun temp3517_14 () (_ BitVec 64))
(declare-fun temp3517_13 () (_ BitVec 64))
(declare-fun temp3517_15 () (_ BitVec 64))
(declare-fun var1838839 () (_ BitVec 64))
(declare-fun temp3517_16 () (_ BitVec 64))
(declare-fun var1443880 () (_ BitVec 64))
(declare-fun var1443867 () (_ BitVec 64))
(declare-fun var1443866 () (_ BitVec 64))
(declare-fun temp3517_17 () (_ BitVec 64))
(declare-fun var1443871 () (_ BitVec 64))
(declare-fun temp3517_18 () (_ BitVec 64))
(declare-fun var1443873 () (_ BitVec 64))
(declare-fun temp3517_19 () (_ BitVec 64))
(declare-fun var2623694 () (_ BitVec 64))
(declare-fun temp3517_20 () (_ BitVec 64))
(declare-fun temp3517_21 () (_ BitVec 64))
(declare-fun var2623724 () (_ BitVec 64))
(declare-fun var2623771 () (_ BitVec 64))
(declare-fun var2623692 () (_ BitVec 64))
(declare-fun var464128 () (_ BitVec 64))
(declare-fun temp3517_22 () (_ BitVec 64))
(declare-fun var464149 () (_ BitVec 64))
(declare-fun var3020107 () (_ BitVec 64))
(assert (= temp3517_2 #x0000000000000000))
(assert (= temp3517_1 temp3517_2))
(assert (= temp3517_3 #x0000000000000001))
(assert (= var463945 temp3517_3))
(assert (= temp3517_4 #x0000000000000001))
(assert (= var788278 temp3517_4))
(assert (= var987356 var788278))
(assert (= temp3517_5 #x0000000000000001))
(assert (= var464053
   (ite (bvslt ARGNAME_n_NAMEEND temp3517_5)
        #x0000000000000001
        #x0000000000000000)))
(assert (= temp3517_6 #x0000000000000000))
(assert (= var464053 temp3517_6))
(assert (= temp3517_7 #x0000000000000002))
(assert (= var464087 (bvsdiv ARGNAME_n_NAMEEND temp3517_7)))
(assert (= temp3517_8 #x0000000000000001))
(assert (= var464088 (bvadd var464087 temp3517_8)))
(assert (= temp3517_9 #x0000000000000001))
(assert (= var1443819 (bvshl ARGNAME_input_NAMEEND_DIM temp3517_9)))
(assert (= temp3517_11 #x0000000000000000))
(assert (= temp3517_10 temp3517_11))
(assert (= var1510263 var1443819))
(assert (= temp3517_12 #x0000000000000005))
(assert (= var1576712 temp3517_12))
(assert (= var1642257 var1510263))
(assert (= temp3517_14 #x0000000000000000))
(assert (= temp3517_13 temp3517_14))
(assert (= temp3517_15 #x0000000000000000))
(assert (= var1838839 temp3517_15))
(assert (= temp3517_16 #x0000000000000000))
(assert (= var1443880 temp3517_16))
(assert (= var1443867 var1443880))
(assert (= var1443866 var1443867))
(assert (= temp3517_17 #x0000000000000001))
(assert (= var1443871 (bvand var1443866 temp3517_17)))
(assert (= temp3517_18 #x0000000000000000))
(assert (= var1443873
   (ite (= var1443871 temp3517_18) #x0000000000000001 #x0000000000000000)))
(assert (= temp3517_19 #x0000000000000001))
(assert (= var1443873 temp3517_19))
(assert (= var2623694 var463945))
(assert (= temp3517_20 #x0000000000000000))
(assert (= temp3517_21 #x0000000000000002))
(assert (= var2623724 (ite (= var2623694 #x0000000000000001) temp3517_20 temp3517_21)))
(assert (= var2623771 var2623724))
(assert (= var2623692 var2623771))
(assert (= var464128 var2623692))
(assert (= temp3517_22 #x0000000000000001))
(assert (= var463945 temp3517_22))
(assert (= var464149 var464128))
(assert (= var3020107 var464149))
(model-add temp3517_2 () (_ BitVec 64) #x0000000000000000)
(model-add temp3517_1 () (_ BitVec 64) #x0000000000000000)
(model-add temp3517_3 () (_ BitVec 64) #x0000000000000001)
(model-add var463945 () (_ BitVec 64) #x0000000000000001)
(model-add temp3517_4 () (_ BitVec 64) #x0000000000000001)
(model-add var788278 () (_ BitVec 64) #x0000000000000001)
(model-add var987356 () (_ BitVec 64) #x0000000000000001)
(model-add temp3517_5 () (_ BitVec 64) #x0000000000000001)
(model-add temp3517_6 () (_ BitVec 64) #x0000000000000000)
(model-add var464053 () (_ BitVec 64) #x0000000000000000)
(model-del k!0)
(model-add ARGNAME_n_NAMEEND
           ()
           (_ BitVec 64)
           (ite (or k!0 (= #x0000000000000001 #x8000000000000000))
                #x0000000000000001
                (bvsub #x0000000000000001 #x0000000000000001)))






